(set-info :smt-lib-version 2.6)
(set-logic QF_NIA)
(set-info :source |
Generated by: Cristina Borralleras, Daniel Larraz, Albert Oliveras, Enric Rodriguez-Carbonell, Albert Rubio
Generated on: 2017-04-27
Generator: VeryMax
Application: Termination proving
Target solver: barcelogic
|)
(set-info :license "https://creativecommons.org/licenses/by/4.0/")
(set-info :category "industrial")
(set-info :status unsat)
(declare-fun Nl3arg11 () Int)
(declare-fun Nl3arg21 () Int)
(declare-fun Nl3arg81 () Int)
(declare-fun Nl3arg91 () Int)
(declare-fun Nl5arg11 () Int)
(declare-fun Nl5arg21 () Int)
(declare-fun Nl5arg81 () Int)
(declare-fun Nl5arg91 () Int)
(declare-fun Nl6arg11 () Int)
(declare-fun Nl6arg21 () Int)
(declare-fun Nl6arg81 () Int)
(declare-fun Nl6arg91 () Int)
(declare-fun lam0n0 () Int)
(declare-fun lam0n1 () Int)
(declare-fun lam0n2 () Int)
(declare-fun lam0n3 () Int)
(declare-fun lam0n4 () Int)
(declare-fun lam0n5 () Int)
(declare-fun lam0n6 () Int)
(declare-fun lam0n7 () Int)
(declare-fun lam0n8 () Int)
(declare-fun lam0n9 () Int)
(declare-fun lam0n10 () Int)
(declare-fun lam0n11 () Int)
(declare-fun Nl3CT1 () Int)
(declare-fun lam1n0 () Int)
(declare-fun lam1n1 () Int)
(declare-fun lam1n2 () Int)
(declare-fun lam1n3 () Int)
(declare-fun lam1n4 () Int)
(declare-fun lam1n5 () Int)
(declare-fun lam1n6 () Int)
(declare-fun lam1n7 () Int)
(declare-fun lam1n8 () Int)
(declare-fun lam1n9 () Int)
(declare-fun lam1n10 () Int)
(declare-fun lam1n11 () Int)
(declare-fun Nl5CT1 () Int)
(declare-fun lam2n0 () Int)
(declare-fun lam2n1 () Int)
(declare-fun lam2n2 () Int)
(declare-fun lam2n3 () Int)
(declare-fun lam2n4 () Int)
(declare-fun lam2n5 () Int)
(declare-fun lam2n6 () Int)
(declare-fun lam2n7 () Int)
(declare-fun lam2n8 () Int)
(declare-fun lam3n0 () Int)
(declare-fun lam3n1 () Int)
(declare-fun lam3n2 () Int)
(declare-fun lam3n3 () Int)
(declare-fun lam3n4 () Int)
(declare-fun lam3n5 () Int)
(declare-fun lam3n6 () Int)
(declare-fun lam3n7 () Int)
(declare-fun lam3n8 () Int)
(declare-fun lam4n0 () Int)
(declare-fun lam4n1 () Int)
(declare-fun lam4n2 () Int)
(declare-fun lam4n3 () Int)
(declare-fun lam4n4 () Int)
(declare-fun lam4n5 () Int)
(declare-fun lam4n6 () Int)
(declare-fun lam4n7 () Int)
(declare-fun lam4n8 () Int)
(declare-fun lam4n9 () Int)
(declare-fun lam4n10 () Int)
(declare-fun lam4n11 () Int)
(declare-fun lam5n0 () Int)
(declare-fun lam5n1 () Int)
(declare-fun lam5n2 () Int)
(declare-fun lam5n3 () Int)
(declare-fun lam5n4 () Int)
(declare-fun lam5n5 () Int)
(declare-fun lam5n6 () Int)
(declare-fun lam5n7 () Int)
(declare-fun lam5n8 () Int)
(declare-fun lam5n9 () Int)
(declare-fun lam5n10 () Int)
(declare-fun lam5n11 () Int)
(declare-fun lam6n0 () Int)
(declare-fun lam6n1 () Int)
(declare-fun lam6n2 () Int)
(declare-fun lam6n3 () Int)
(declare-fun lam6n4 () Int)
(declare-fun lam6n5 () Int)
(declare-fun lam6n6 () Int)
(declare-fun lam6n7 () Int)
(declare-fun lam6n8 () Int)
(declare-fun lam6n9 () Int)
(declare-fun lam6n10 () Int)
(declare-fun lam6n11 () Int)
(declare-fun lam7n0 () Int)
(declare-fun lam7n1 () Int)
(declare-fun lam7n2 () Int)
(declare-fun lam7n3 () Int)
(declare-fun lam7n4 () Int)
(declare-fun lam7n5 () Int)
(declare-fun lam7n6 () Int)
(declare-fun lam7n7 () Int)
(declare-fun lam7n8 () Int)
(declare-fun lam7n9 () Int)
(declare-fun lam7n10 () Int)
(declare-fun lam7n11 () Int)
(declare-fun Nl6CT1 () Int)
(declare-fun lam8n0 () Int)
(declare-fun lam8n1 () Int)
(declare-fun lam8n2 () Int)
(declare-fun lam8n3 () Int)
(declare-fun lam8n4 () Int)
(declare-fun lam8n5 () Int)
(declare-fun lam9n0 () Int)
(declare-fun lam9n1 () Int)
(declare-fun lam9n2 () Int)
(declare-fun lam9n3 () Int)
(declare-fun lam9n4 () Int)
(declare-fun lam9n5 () Int)
(declare-fun lam10n0 () Int)
(declare-fun lam10n1 () Int)
(declare-fun lam10n2 () Int)
(declare-fun lam10n3 () Int)
(declare-fun lam10n4 () Int)
(declare-fun lam10n5 () Int)
(declare-fun lam11n0 () Int)
(declare-fun lam11n1 () Int)
(declare-fun lam11n2 () Int)
(declare-fun lam11n3 () Int)
(declare-fun lam11n4 () Int)
(declare-fun lam11n5 () Int)
(declare-fun lam14n0 () Int)
(declare-fun lam14n1 () Int)
(declare-fun lam14n2 () Int)
(declare-fun lam14n3 () Int)
(declare-fun lam14n4 () Int)
(declare-fun lam14n5 () Int)
(declare-fun lam14n6 () Int)
(declare-fun lam14n7 () Int)
(declare-fun lam14n8 () Int)
(declare-fun lam14n9 () Int)
(declare-fun lam14n10 () Int)
(declare-fun lam14n11 () Int)
(declare-fun RFN1_CT () Int)
(declare-fun RFN1_arg1 () Int)
(declare-fun RFN1_arg3 () Int)
(declare-fun RFN1_arg4 () Int)
(declare-fun RFN1_arg5 () Int)
(declare-fun RFN1_arg6 () Int)
(declare-fun RFN1_arg7 () Int)
(declare-fun RFN1_arg8 () Int)
(declare-fun RFN1_arg9 () Int)
(declare-fun RFN1_arg2 () Int)
(declare-fun lam17n0 () Int)
(declare-fun lam17n1 () Int)
(declare-fun lam17n2 () Int)
(declare-fun lam17n3 () Int)
(declare-fun lam17n4 () Int)
(declare-fun lam17n5 () Int)
(declare-fun lam17n6 () Int)
(declare-fun lam17n7 () Int)
(declare-fun lam17n8 () Int)
(declare-fun lam20n0 () Int)
(declare-fun lam20n1 () Int)
(declare-fun lam20n2 () Int)
(declare-fun lam20n3 () Int)
(declare-fun lam20n4 () Int)
(declare-fun lam20n5 () Int)
(declare-fun lam20n6 () Int)
(declare-fun lam20n7 () Int)
(declare-fun lam20n8 () Int)
(declare-fun lam20n9 () Int)
(declare-fun lam20n10 () Int)
(declare-fun lam20n11 () Int)
(declare-fun lam23n0 () Int)
(declare-fun lam23n1 () Int)
(declare-fun lam23n2 () Int)
(declare-fun lam23n3 () Int)
(declare-fun lam23n4 () Int)
(declare-fun lam23n5 () Int)
(declare-fun lam23n6 () Int)
(declare-fun lam23n7 () Int)
(declare-fun lam23n8 () Int)
(declare-fun lam23n9 () Int)
(declare-fun lam23n10 () Int)
(declare-fun lam23n11 () Int)
(declare-fun lam26n0 () Int)
(declare-fun lam26n1 () Int)
(declare-fun lam26n2 () Int)
(declare-fun lam26n3 () Int)
(declare-fun lam26n4 () Int)
(declare-fun lam26n5 () Int)
(declare-fun lam29n0 () Int)
(declare-fun lam29n1 () Int)
(declare-fun lam29n2 () Int)
(declare-fun lam29n3 () Int)
(declare-fun lam29n4 () Int)
(declare-fun lam29n5 () Int)
(declare-fun lam27n0 () Int)
(declare-fun lam27n1 () Int)
(declare-fun lam27n2 () Int)
(declare-fun lam27n3 () Int)
(declare-fun lam27n4 () Int)
(declare-fun lam27n5 () Int)
(declare-fun lam28n0 () Int)
(declare-fun lam28n1 () Int)
(declare-fun lam28n2 () Int)
(declare-fun lam28n3 () Int)
(declare-fun lam28n4 () Int)
(declare-fun lam28n5 () Int)
(declare-fun lam30n0 () Int)
(declare-fun lam30n1 () Int)
(declare-fun lam30n2 () Int)
(declare-fun lam30n3 () Int)
(declare-fun lam30n4 () Int)
(declare-fun lam30n5 () Int)
(assert ( and ( <= ( - 1000 ) Nl3arg11 ) ( <= Nl3arg11 1000 ) ( <= ( - 1000 ) Nl3arg21 ) ( <= Nl3arg21 1000 ) ( <= ( - 1000 ) Nl3arg81 ) ( <= Nl3arg81 1000 ) ( <= ( - 1000 ) Nl3arg91 ) ( <= Nl3arg91 1000 ) ( <= ( - 1000 ) Nl5arg11 ) ( <= Nl5arg11 1000 ) ( <= ( - 1000 ) Nl5arg21 ) ( <= Nl5arg21 1000 ) ( <= ( - 1000 ) Nl5arg81 ) ( <= Nl5arg81 1000 ) ( <= ( - 1000 ) Nl5arg91 ) ( <= Nl5arg91 1000 ) ( <= ( - 1000 ) Nl6arg11 ) ( <= Nl6arg11 1000 ) ( <= ( - 1000 ) Nl6arg21 ) ( <= Nl6arg21 1000 ) ( <= ( - 1000 ) Nl6arg81 ) ( <= Nl6arg81 1000 ) ( <= ( - 1000 ) Nl6arg91 ) ( <= Nl6arg91 1000 ) ))
(assert ( or ( and ( >= lam0n0 0 ) ( >= lam0n1 0 ) ( >= lam0n2 0 ) ( >= lam0n3 0 ) ( >= lam0n4 0 ) ( >= lam0n5 0 ) ( >= lam0n6 0 ) ( >= lam0n7 0 ) ( >= lam0n8 0 ) ( >= lam0n9 0 ) ( >= lam0n10 0 ) ( >= lam0n11 0 ) ( > ( + ( * 1 lam0n0 ) ( * 1 lam0n1 ) ( * 1 lam0n2 ) ( * 1 lam0n3 ) ( * ( - 1 ) lam0n4 ) ( * Nl3CT1 lam0n11 ) ( - 1 ) ) 0 ) ( = ( + ( * ( - 1 ) lam0n0 ) ( * ( - 1 ) lam0n5 ) ( * Nl3arg11 lam0n11 ) ) 0 ) ( = ( + ( * ( - 1 ) lam0n4 ) ( * ( - 1 ) lam0n6 ) ( * ( - 1 ) lam0n7 ) ( * ( - 2 ) lam0n8 ) ( * Nl3arg21 lam0n11 ) ) 0 ) ( = ( + ( * 1 lam0n1 ) ( * ( - 1 ) lam0n7 ) ( * ( - 3 ) lam0n8 ) ( * ( - 1 ) lam0n9 ) ) 0 ) ( = ( * ( - 1 ) lam0n1 ) 0 ) ( = ( * 1 lam0n4 ) 0 ) ( = ( * Nl3arg81 lam0n11 ) 0 ) ( = ( * Nl3arg91 lam0n11 ) 0 ) ( = ( + ( * ( - 1 ) lam0n2 ) ( * 1 lam0n5 ) ( * ( - 1 ) lam0n10 ) ) 0 ) ( = ( + ( * ( - 1 ) lam0n3 ) ( * 1 lam0n10 ) ) 0 ) ) ( and ( >= lam1n0 0 ) ( >= lam1n1 0 ) ( >= lam1n2 0 ) ( >= lam1n3 0 ) ( >= lam1n4 0 ) ( >= lam1n5 0 ) ( >= lam1n6 0 ) ( >= lam1n7 0 ) ( >= lam1n8 0 ) ( >= lam1n9 0 ) ( >= lam1n10 0 ) ( >= lam1n11 0 ) ( > ( + ( * 1 lam1n0 ) ( * 1 lam1n1 ) ( * 1 lam1n2 ) ( * 1 lam1n3 ) ( * ( - 1 ) lam1n4 ) ( * Nl3CT1 lam1n11 ) ( - 1 ( + ( + ( + Nl5CT1 ( * Nl5arg11 0 ) ) ( * Nl5arg81 0 ) ) ( * Nl5arg91 0 ) ) ) ) 0 ) ( = ( + ( * ( - 1 ) lam1n0 ) ( * ( - 1 ) lam1n5 ) ( * Nl3arg11 lam1n11 ) ) 0 ) ( = ( + ( * ( - 1 ) lam1n4 ) ( * ( - 1 ) lam1n6 ) ( * ( - 1 ) lam1n7 ) ( * ( - 2 ) lam1n8 ) ( * Nl3arg21 lam1n11 ) ( - ( + 0 Nl5arg21 ) ) ) 0 ) ( = ( + ( * 1 lam1n1 ) ( * ( - 1 ) lam1n7 ) ( * ( - 3 ) lam1n8 ) ( * ( - 1 ) lam1n9 ) ) 0 ) ( = ( * ( - 1 ) lam1n1 ) 0 ) ( = ( + ( * 1 lam1n4 ) ( - ( + 0 ( * Nl5arg81 1 ) ) ) ) 0 ) ( = ( * Nl3arg81 lam1n11 ) 0 ) ( = ( * Nl3arg91 lam1n11 ) 0 ) ( = ( + ( * ( - 1 ) lam1n2 ) ( * 1 lam1n5 ) ( * ( - 1 ) lam1n10 ) ) 0 ) ( = ( + ( * ( - 1 ) lam1n3 ) ( * 1 lam1n10 ) ( - ( + 0 ( * Nl5arg11 1 ) ) ) ) 0 ) ( = ( - ( + 0 ( * Nl5arg91 1 ) ) ) 0 ) ) ))
(assert ( or ( and ( >= lam2n0 0 ) ( >= lam2n1 0 ) ( >= lam2n2 0 ) ( >= lam2n3 0 ) ( >= lam2n4 0 ) ( >= lam2n5 0 ) ( >= lam2n6 0 ) ( >= lam2n7 0 ) ( >= lam2n8 0 ) ( > ( + ( * 1 lam2n0 ) ( * 1 lam2n1 ) ( * 1 lam2n2 ) ( * ( - 1 ) lam2n3 ) ( * Nl5CT1 lam2n8 ) ( - 1 ) ) 0 ) ( = ( + ( * ( - 1 ) lam2n0 ) ( * ( - 1 ) lam2n4 ) ( * Nl5arg11 lam2n8 ) ) 0 ) ( = ( + ( * ( - 1 ) lam2n3 ) ( * Nl5arg21 lam2n8 ) ) 0 ) ( = ( * 1 lam2n5 ) 0 ) ( = ( * ( - 1 ) lam2n6 ) 0 ) ( = ( * 1 lam2n6 ) 0 ) ( = ( + ( * 1 lam2n3 ) ( * Nl5arg81 lam2n8 ) ) 0 ) ( = ( * Nl5arg91 lam2n8 ) 0 ) ( = ( + ( * ( - 1 ) lam2n1 ) ( * 1 lam2n7 ) ) 0 ) ( = ( + ( * ( - 1 ) lam2n2 ) ( * 1 lam2n4 ) ( * ( - 1 ) lam2n7 ) ) 0 ) ) ( and ( >= lam3n0 0 ) ( >= lam3n1 0 ) ( >= lam3n2 0 ) ( >= lam3n3 0 ) ( >= lam3n4 0 ) ( >= lam3n5 0 ) ( >= lam3n6 0 ) ( >= lam3n7 0 ) ( >= lam3n8 0 ) ( > ( + ( * 1 lam3n0 ) ( * 1 lam3n1 ) ( * 1 lam3n2 ) ( * ( - 1 ) lam3n3 ) ( * Nl5CT1 lam3n8 ) ( - 1 ( + ( + ( + Nl3CT1 ( * Nl3arg11 0 ) ) ( * Nl3arg81 0 ) ) ( * Nl3arg91 0 ) ) ) ) 0 ) ( = ( + ( * ( - 1 ) lam3n0 ) ( * ( - 1 ) lam3n4 ) ( * Nl5arg11 lam3n8 ) ) 0 ) ( = ( + ( * ( - 1 ) lam3n3 ) ( * Nl5arg21 lam3n8 ) ( - ( + 0 Nl3arg21 ) ) ) 0 ) ( = ( * 1 lam3n5 ) 0 ) ( = ( * ( - 1 ) lam3n6 ) 0 ) ( = ( * 1 lam3n6 ) 0 ) ( = ( + ( * 1 lam3n3 ) ( * Nl5arg81 lam3n8 ) ) 0 ) ( = ( * Nl5arg91 lam3n8 ) 0 ) ( = ( + ( * ( - 1 ) lam3n1 ) ( * 1 lam3n7 ) ( - ( + 0 ( * Nl3arg11 1 ) ) ) ) 0 ) ( = ( - ( + 0 ( * Nl3arg81 1 ) ) ) 0 ) ( = ( - ( + 0 ( * Nl3arg91 1 ) ) ) 0 ) ( = ( + ( * ( - 1 ) lam3n2 ) ( * 1 lam3n4 ) ( * ( - 1 ) lam3n7 ) ) 0 ) ) ))
(assert ( or ( and ( >= lam4n0 0 ) ( >= lam4n1 0 ) ( >= lam4n2 0 ) ( >= lam4n3 0 ) ( >= lam4n4 0 ) ( >= lam4n5 0 ) ( >= lam4n6 0 ) ( >= lam4n7 0 ) ( >= lam4n8 0 ) ( >= lam4n9 0 ) ( >= lam4n10 0 ) ( >= lam4n11 0 ) ( > ( + ( * 1 lam4n0 ) ( * 1 lam4n1 ) ( * 1 lam4n2 ) ( * 1 lam4n3 ) ( * ( - 1 ) lam4n4 ) ( * Nl5CT1 lam4n11 ) ( - 1 ) ) 0 ) ( = ( + ( * ( - 1 ) lam4n0 ) ( * ( - 1 ) lam4n5 ) ( * Nl5arg11 lam4n11 ) ) 0 ) ( = ( + ( * ( - 1 ) lam4n4 ) ( * ( - 1 ) lam4n6 ) ( * ( - 2 ) lam4n7 ) ( * Nl5arg21 lam4n11 ) ) 0 ) ( = ( + ( * ( - 3 ) lam4n7 ) ( * ( - 1 ) lam4n8 ) ) 0 ) ( = ( * ( - 1 ) lam4n1 ) 0 ) ( = ( * ( - 1 ) lam4n9 ) 0 ) ( = ( * 1 lam4n9 ) 0 ) ( = ( + ( * 1 lam4n4 ) ( * Nl5arg81 lam4n11 ) ) 0 ) ( = ( * Nl5arg91 lam4n11 ) 0 ) ( = ( + ( * ( - 1 ) lam4n2 ) ( * 1 lam4n10 ) ) 0 ) ( = ( + ( * ( - 1 ) lam4n3 ) ( * 1 lam4n5 ) ( * ( - 1 ) lam4n10 ) ) 0 ) ) ( and ( >= lam5n0 0 ) ( >= lam5n1 0 ) ( >= lam5n2 0 ) ( >= lam5n3 0 ) ( >= lam5n4 0 ) ( >= lam5n5 0 ) ( >= lam5n6 0 ) ( >= lam5n7 0 ) ( >= lam5n8 0 ) ( >= lam5n9 0 ) ( >= lam5n10 0 ) ( >= lam5n11 0 ) ( > ( + ( * 1 lam5n0 ) ( * 1 lam5n1 ) ( * 1 lam5n2 ) ( * 1 lam5n3 ) ( * ( - 1 ) lam5n4 ) ( * Nl5CT1 lam5n11 ) ( - 1 ( + ( + Nl5CT1 ( * Nl5arg11 0 ) ) ( * Nl5arg91 0 ) ) ) ) 0 ) ( = ( + ( * ( - 1 ) lam5n0 ) ( * ( - 1 ) lam5n5 ) ( * Nl5arg11 lam5n11 ) ) 0 ) ( = ( + ( * ( - 1 ) lam5n4 ) ( * ( - 1 ) lam5n6 ) ( * ( - 2 ) lam5n7 ) ( * Nl5arg21 lam5n11 ) ( - ( + 0 Nl5arg21 ) ) ) 0 ) ( = ( + ( * ( - 3 ) lam5n7 ) ( * ( - 1 ) lam5n8 ) ) 0 ) ( = ( * ( - 1 ) lam5n1 ) 0 ) ( = ( * ( - 1 ) lam5n9 ) 0 ) ( = ( * 1 lam5n9 ) 0 ) ( = ( + ( * 1 lam5n4 ) ( * Nl5arg81 lam5n11 ) ( - ( + 0 Nl5arg81 ) ) ) 0 ) ( = ( * Nl5arg91 lam5n11 ) 0 ) ( = ( + ( * ( - 1 ) lam5n2 ) ( * 1 lam5n10 ) ( - ( + 0 ( * Nl5arg11 1 ) ) ) ) 0 ) ( = ( - ( + 0 ( * Nl5arg91 1 ) ) ) 0 ) ( = ( + ( * ( - 1 ) lam5n3 ) ( * 1 lam5n5 ) ( * ( - 1 ) lam5n10 ) ) 0 ) ) ))
(assert ( or ( and ( >= lam6n0 0 ) ( >= lam6n1 0 ) ( >= lam6n2 0 ) ( >= lam6n3 0 ) ( >= lam6n4 0 ) ( >= lam6n5 0 ) ( >= lam6n6 0 ) ( >= lam6n7 0 ) ( >= lam6n8 0 ) ( >= lam6n9 0 ) ( >= lam6n10 0 ) ( >= lam6n11 0 ) ( > ( + ( * 1 lam6n0 ) ( * 1 lam6n1 ) ( * 1 lam6n2 ) ( * ( - 1 ) lam6n3 ) ( * Nl5CT1 lam6n11 ) ( - 1 ) ) 0 ) ( = ( + ( * ( - 1 ) lam6n0 ) ( * ( - 1 ) lam6n4 ) ( * Nl5arg11 lam6n11 ) ) 0 ) ( = ( + ( * ( - 1 ) lam6n3 ) ( * ( - 1 ) lam6n5 ) ( * ( - 100 ) lam6n6 ) ( * ( - 10 ) lam6n7 ) ( * Nl5arg21 lam6n11 ) ) 0 ) ( = ( + ( * ( - 10 ) lam6n6 ) ( * ( - 1 ) lam6n7 ) ( * ( - 1 ) lam6n8 ) ) 0 ) ( = ( + ( * ( - 1 ) lam6n6 ) ( * ( - 1 ) lam6n9 ) ) 0 ) ( = ( + ( * 1 lam6n1 ) ( * ( - 1 ) lam6n10 ) ) 0 ) ( = ( * ( - 1 ) lam6n1 ) 0 ) ( = ( + ( * 1 lam6n3 ) ( * Nl5arg81 lam6n11 ) ) 0 ) ( = ( * Nl5arg91 lam6n11 ) 0 ) ( = ( + ( * ( - 1 ) lam6n2 ) ( * 1 lam6n4 ) ) 0 ) ) ( and ( >= lam7n0 0 ) ( >= lam7n1 0 ) ( >= lam7n2 0 ) ( >= lam7n3 0 ) ( >= lam7n4 0 ) ( >= lam7n5 0 ) ( >= lam7n6 0 ) ( >= lam7n7 0 ) ( >= lam7n8 0 ) ( >= lam7n9 0 ) ( >= lam7n10 0 ) ( >= lam7n11 0 ) ( > ( + ( * 1 lam7n0 ) ( * 1 lam7n1 ) ( * 1 lam7n2 ) ( * ( - 1 ) lam7n3 ) ( * Nl5CT1 lam7n11 ) ( - 1 ( + ( + ( + Nl6CT1 ( * Nl6arg11 0 ) ) ( * Nl6arg81 0 ) ) ( * Nl6arg91 0 ) ) ) ) 0 ) ( = ( + ( * ( - 1 ) lam7n0 ) ( * ( - 1 ) lam7n4 ) ( * Nl5arg11 lam7n11 ) ) 0 ) ( = ( + ( * ( - 1 ) lam7n3 ) ( * ( - 1 ) lam7n5 ) ( * ( - 100 ) lam7n6 ) ( * ( - 10 ) lam7n7 ) ( * Nl5arg21 lam7n11 ) ( - ( + ( + 0 Nl6arg21 ) ( * Nl6arg81 1000 ) ) ) ) 0 ) ( = ( + ( * ( - 10 ) lam7n6 ) ( * ( - 1 ) lam7n7 ) ( * ( - 1 ) lam7n8 ) ( - ( + 0 ( * Nl6arg81 100 ) ) ) ) 0 ) ( = ( + ( * ( - 1 ) lam7n6 ) ( * ( - 1 ) lam7n9 ) ( - ( + 0 ( * Nl6arg81 10 ) ) ) ) 0 ) ( = ( + ( * 1 lam7n1 ) ( * ( - 1 ) lam7n10 ) ( - ( + 0 ( * Nl6arg81 1 ) ) ) ) 0 ) ( = ( * ( - 1 ) lam7n1 ) 0 ) ( = ( + ( * 1 lam7n3 ) ( * Nl5arg81 lam7n11 ) ( - ( + 0 ( * Nl6arg91 1 ) ) ) ) 0 ) ( = ( * Nl5arg91 lam7n11 ) 0 ) ( = ( + ( * ( - 1 ) lam7n2 ) ( * 1 lam7n4 ) ( - ( + 0 ( * Nl6arg11 1 ) ) ) ) 0 ) ) ))
(assert ( or ( and ( >= lam8n0 0 ) ( >= lam8n1 0 ) ( >= lam8n2 0 ) ( >= lam8n3 0 ) ( >= lam8n4 0 ) ( >= lam8n5 0 ) ( > ( + ( * 1 lam8n0 ) ( * 1 lam8n1 ) ( * 1 lam8n2 ) ( * ( - 1 ) lam8n3 ) ( * Nl6CT1 lam8n5 ) ( - 1 ) ) 0 ) ( = ( + ( * ( - 1 ) lam8n0 ) ( * ( - 1 ) lam8n4 ) ( * Nl6arg11 lam8n5 ) ) 0 ) ( = ( + ( * ( - 1 ) lam8n3 ) ( * Nl6arg21 lam8n5 ) ) 0 ) ( = ( + ( * 1 lam8n1 ) ( * Nl6arg81 lam8n5 ) ) 0 ) ( = ( + ( * 1 lam8n3 ) ( * Nl6arg91 lam8n5 ) ) 0 ) ( = ( + ( * ( - 1 ) lam8n2 ) ( * 1 lam8n4 ) ) 0 ) ) ( and ( >= lam9n0 0 ) ( >= lam9n1 0 ) ( >= lam9n2 0 ) ( >= lam9n3 0 ) ( >= lam9n4 0 ) ( >= lam9n5 0 ) ( > ( + ( * 1 lam9n0 ) ( * 1 lam9n1 ) ( * 1 lam9n2 ) ( * ( - 1 ) lam9n3 ) ( * Nl6CT1 lam9n5 ) ( - 1 ( + ( + ( + Nl5CT1 ( * Nl5arg11 0 ) ) ( * Nl5arg81 0 ) ) ( * Nl5arg91 0 ) ) ) ) 0 ) ( = ( + ( * ( - 1 ) lam9n0 ) ( * ( - 1 ) lam9n4 ) ( * Nl6arg11 lam9n5 ) ) 0 ) ( = ( + ( * ( - 1 ) lam9n3 ) ( * Nl6arg21 lam9n5 ) ( - ( + 0 Nl5arg21 ) ) ) 0 ) ( = ( + ( * 1 lam9n1 ) ( * Nl6arg81 lam9n5 ) ) 0 ) ( = ( + ( * 1 lam9n3 ) ( * Nl6arg91 lam9n5 ) ( - ( + 0 ( * Nl5arg81 1 ) ) ) ) 0 ) ( = ( + ( * ( - 1 ) lam9n2 ) ( * 1 lam9n4 ) ( - ( + 0 ( * Nl5arg11 1 ) ) ) ) 0 ) ( = ( - ( + 0 ( * Nl5arg91 1 ) ) ) 0 ) ) ))
(assert ( or ( and ( >= lam10n0 0 ) ( >= lam10n1 0 ) ( >= lam10n2 0 ) ( >= lam10n3 0 ) ( >= lam10n4 0 ) ( >= lam10n5 0 ) ( > ( + ( * 1 lam10n0 ) ( * 1 lam10n1 ) ( * ( - 1 ) lam10n2 ) ( * Nl6CT1 lam10n5 ) ( - 1 ) ) 0 ) ( = ( + ( * ( - 1 ) lam10n0 ) ( * ( - 1 ) lam10n3 ) ( * Nl6arg11 lam10n5 ) ) 0 ) ( = ( + ( * ( - 1 ) lam10n2 ) ( * Nl6arg21 lam10n5 ) ) 0 ) ( = ( + ( * ( - 1 ) lam10n4 ) ( * Nl6arg81 lam10n5 ) ) 0 ) ( = ( + ( * 1 lam10n2 ) ( * Nl6arg91 lam10n5 ) ) 0 ) ( = ( + ( * ( - 1 ) lam10n1 ) ( * 1 lam10n3 ) ) 0 ) ) ( and ( >= lam11n0 0 ) ( >= lam11n1 0 ) ( >= lam11n2 0 ) ( >= lam11n3 0 ) ( >= lam11n4 0 ) ( >= lam11n5 0 ) ( > ( + ( * 1 lam11n0 ) ( * 1 lam11n1 ) ( * ( - 1 ) lam11n2 ) ( * Nl6CT1 lam11n5 ) ( - 1 ( + ( + Nl6CT1 ( * Nl6arg11 0 ) ) ( * Nl6arg81 ( - 1 ) ) ) ) ) 0 ) ( = ( + ( * ( - 1 ) lam11n0 ) ( * ( - 1 ) lam11n3 ) ( * Nl6arg11 lam11n5 ) ) 0 ) ( = ( + ( * ( - 1 ) lam11n2 ) ( * Nl6arg21 lam11n5 ) ( - ( + 0 Nl6arg21 ) ) ) 0 ) ( = ( + ( * ( - 1 ) lam11n4 ) ( * Nl6arg81 lam11n5 ) ( - ( + 0 ( * Nl6arg81 1 ) ) ) ) 0 ) ( = ( + ( * 1 lam11n2 ) ( * Nl6arg91 lam11n5 ) ( - ( + 0 Nl6arg91 ) ) ) 0 ) ( = ( + ( * ( - 1 ) lam11n1 ) ( * 1 lam11n3 ) ( - ( + 0 ( * Nl6arg11 1 ) ) ) ) 0 ) ) ))
(assert ( and ( or ( and ( >= lam0n0 0 ) ( >= lam0n1 0 ) ( >= lam0n2 0 ) ( >= lam0n3 0 ) ( >= lam0n4 0 ) ( >= lam0n5 0 ) ( >= lam0n6 0 ) ( >= lam0n7 0 ) ( >= lam0n8 0 ) ( >= lam0n9 0 ) ( >= lam0n10 0 ) ( >= lam0n11 0 ) ( > ( + ( * 1 lam0n0 ) ( * 1 lam0n1 ) ( * 1 lam0n2 ) ( * 1 lam0n3 ) ( * ( - 1 ) lam0n4 ) ( * Nl3CT1 lam0n11 ) ( - 1 ) ) 0 ) ( = ( + ( * ( - 1 ) lam0n0 ) ( * ( - 1 ) lam0n5 ) ( * Nl3arg11 lam0n11 ) ) 0 ) ( = ( + ( * ( - 1 ) lam0n4 ) ( * ( - 1 ) lam0n6 ) ( * ( - 1 ) lam0n7 ) ( * ( - 2 ) lam0n8 ) ( * Nl3arg21 lam0n11 ) ) 0 ) ( = ( + ( * 1 lam0n1 ) ( * ( - 1 ) lam0n7 ) ( * ( - 3 ) lam0n8 ) ( * ( - 1 ) lam0n9 ) ) 0 ) ( = ( * ( - 1 ) lam0n1 ) 0 ) ( = ( * 1 lam0n4 ) 0 ) ( = ( * Nl3arg81 lam0n11 ) 0 ) ( = ( * Nl3arg91 lam0n11 ) 0 ) ( = ( + ( * ( - 1 ) lam0n2 ) ( * 1 lam0n5 ) ( * ( - 1 ) lam0n10 ) ) 0 ) ( = ( + ( * ( - 1 ) lam0n3 ) ( * 1 lam0n10 ) ) 0 ) ) ( and ( >= lam14n0 0 ) ( >= lam14n1 0 ) ( >= lam14n2 0 ) ( >= lam14n3 0 ) ( >= lam14n4 0 ) ( >= lam14n5 0 ) ( >= lam14n6 0 ) ( >= lam14n7 0 ) ( >= lam14n8 0 ) ( >= lam14n9 0 ) ( >= lam14n10 0 ) ( >= lam14n11 0 ) ( > ( + ( * 1 lam14n0 ) ( * 1 lam14n1 ) ( * 1 lam14n2 ) ( * 1 lam14n3 ) ( * ( - 1 ) lam14n4 ) ( * Nl3CT1 lam14n11 ) ( - 1 ( - ( + ( + ( + ( + ( + ( + ( + ( + RFN1_CT ( * RFN1_arg1 0 ) ) ( * RFN1_arg3 0 ) ) ( * RFN1_arg4 0 ) ) ( * RFN1_arg5 0 ) ) ( * RFN1_arg6 0 ) ) ( * RFN1_arg7 0 ) ) ( * RFN1_arg8 0 ) ) ( * RFN1_arg9 0 ) ) RFN1_CT ) ) ) 0 ) ( = ( + ( * ( - 1 ) lam14n0 ) ( * ( - 1 ) lam14n5 ) ( * Nl3arg11 lam14n11 ) ( - ( - RFN1_arg1 ) ) ) 0 ) ( = ( + ( * ( - 1 ) lam14n4 ) ( * ( - 1 ) lam14n6 ) ( * ( - 1 ) lam14n7 ) ( * ( - 2 ) lam14n8 ) ( * Nl3arg21 lam14n11 ) ( - ( - ( + ( + ( + 0 RFN1_arg2 ) ( * RFN1_arg5 1 ) ) ( * RFN1_arg7 6 ) ) RFN1_arg2 ) ) ) 0 ) ( = ( + ( * 1 lam14n1 ) ( * ( - 1 ) lam14n7 ) ( * ( - 3 ) lam14n8 ) ( * ( - 1 ) lam14n9 ) ( - ( - ( + ( + ( + 0 ( * RFN1_arg4 1 ) ) ( * RFN1_arg5 1 ) ) ( * RFN1_arg7 7 ) ) RFN1_arg3 ) ) ) 0 ) ( = ( + ( * ( - 1 ) lam14n1 ) ( - ( - ( + 0 ( * RFN1_arg3 1 ) ) RFN1_arg4 ) ) ) 0 ) ( = ( + ( * 1 lam14n4 ) ( - ( - ( + 0 ( * RFN1_arg8 1 ) ) RFN1_arg5 ) ) ) 0 ) ( = ( - ( - RFN1_arg6 ) ) 0 ) ( = ( - ( - RFN1_arg7 ) ) 0 ) ( = ( + ( * Nl3arg81 lam14n11 ) ( - ( - RFN1_arg8 ) ) ) 0 ) ( = ( + ( * Nl3arg91 lam14n11 ) ( - ( - RFN1_arg9 ) ) ) 0 ) ( = ( + ( * ( - 1 ) lam14n2 ) ( * 1 lam14n5 ) ( * ( - 1 ) lam14n10 ) ) 0 ) ( = ( + ( * ( - 1 ) lam14n3 ) ( * 1 lam14n10 ) ( - ( + 0 ( * RFN1_arg1 1 ) ) ) ) 0 ) ( = ( - ( + 0 ( * RFN1_arg9 1 ) ) ) 0 ) ) ) ( or ( and ( >= lam2n0 0 ) ( >= lam2n1 0 ) ( >= lam2n2 0 ) ( >= lam2n3 0 ) ( >= lam2n4 0 ) ( >= lam2n5 0 ) ( >= lam2n6 0 ) ( >= lam2n7 0 ) ( >= lam2n8 0 ) ( > ( + ( * 1 lam2n0 ) ( * 1 lam2n1 ) ( * 1 lam2n2 ) ( * ( - 1 ) lam2n3 ) ( * Nl5CT1 lam2n8 ) ( - 1 ) ) 0 ) ( = ( + ( * ( - 1 ) lam2n0 ) ( * ( - 1 ) lam2n4 ) ( * Nl5arg11 lam2n8 ) ) 0 ) ( = ( + ( * ( - 1 ) lam2n3 ) ( * Nl5arg21 lam2n8 ) ) 0 ) ( = ( * 1 lam2n5 ) 0 ) ( = ( * ( - 1 ) lam2n6 ) 0 ) ( = ( * 1 lam2n6 ) 0 ) ( = ( + ( * 1 lam2n3 ) ( * Nl5arg81 lam2n8 ) ) 0 ) ( = ( * Nl5arg91 lam2n8 ) 0 ) ( = ( + ( * ( - 1 ) lam2n1 ) ( * 1 lam2n7 ) ) 0 ) ( = ( + ( * ( - 1 ) lam2n2 ) ( * 1 lam2n4 ) ( * ( - 1 ) lam2n7 ) ) 0 ) ) ( and ( >= lam17n0 0 ) ( >= lam17n1 0 ) ( >= lam17n2 0 ) ( >= lam17n3 0 ) ( >= lam17n4 0 ) ( >= lam17n5 0 ) ( >= lam17n6 0 ) ( >= lam17n7 0 ) ( >= lam17n8 0 ) ( > ( + ( * 1 lam17n0 ) ( * 1 lam17n1 ) ( * 1 lam17n2 ) ( * ( - 1 ) lam17n3 ) ( * Nl5CT1 lam17n8 ) ( - 1 ( - ( + ( + ( + ( + ( + ( + ( + ( + RFN1_CT ( * RFN1_arg1 0 ) ) ( * RFN1_arg3 1 ) ) ( * RFN1_arg4 0 ) ) ( * RFN1_arg5 0 ) ) ( * RFN1_arg6 0 ) ) ( * RFN1_arg7 0 ) ) ( * RFN1_arg8 0 ) ) ( * RFN1_arg9 0 ) ) RFN1_CT ) ) ) 0 ) ( = ( + ( * ( - 1 ) lam17n0 ) ( * ( - 1 ) lam17n4 ) ( * Nl5arg11 lam17n8 ) ( - ( - RFN1_arg1 ) ) ) 0 ) ( = ( + ( * ( - 1 ) lam17n3 ) ( * Nl5arg21 lam17n8 ) ( - ( - ( + 0 RFN1_arg2 ) RFN1_arg2 ) ) ) 0 ) ( = ( - ( - ( + 0 ( * RFN1_arg4 1 ) ) RFN1_arg3 ) ) 0 ) ( = ( - ( - ( + 0 ( * RFN1_arg3 1 ) ) RFN1_arg4 ) ) 0 ) ( = ( + ( * 1 lam17n5 ) ( - ( - RFN1_arg5 ) ) ) 0 ) ( = ( + ( * ( - 1 ) lam17n6 ) ( - ( - RFN1_arg6 ) ) ) 0 ) ( = ( + ( * 1 lam17n6 ) ( - ( - RFN1_arg7 ) ) ) 0 ) ( = ( + ( * 1 lam17n3 ) ( * Nl5arg81 lam17n8 ) ( - ( - ( + 0 ( * RFN1_arg5 1 ) ) RFN1_arg8 ) ) ) 0 ) ( = ( + ( * Nl5arg91 lam17n8 ) ( - ( - RFN1_arg9 ) ) ) 0 ) ( = ( + ( * ( - 1 ) lam17n1 ) ( * 1 lam17n7 ) ( - ( + 0 ( * RFN1_arg1 1 ) ) ) ) 0 ) ( = ( - ( + 0 ( * RFN1_arg6 1 ) ) ) 0 ) ( = ( - ( + 0 ( * RFN1_arg7 1 ) ) ) 0 ) ( = ( - ( + 0 ( * RFN1_arg8 1 ) ) ) 0 ) ( = ( - ( + 0 ( * RFN1_arg9 1 ) ) ) 0 ) ( = ( + ( * ( - 1 ) lam17n2 ) ( * 1 lam17n4 ) ( * ( - 1 ) lam17n7 ) ) 0 ) ) ) ( or ( and ( >= lam4n0 0 ) ( >= lam4n1 0 ) ( >= lam4n2 0 ) ( >= lam4n3 0 ) ( >= lam4n4 0 ) ( >= lam4n5 0 ) ( >= lam4n6 0 ) ( >= lam4n7 0 ) ( >= lam4n8 0 ) ( >= lam4n9 0 ) ( >= lam4n10 0 ) ( >= lam4n11 0 ) ( > ( + ( * 1 lam4n0 ) ( * 1 lam4n1 ) ( * 1 lam4n2 ) ( * 1 lam4n3 ) ( * ( - 1 ) lam4n4 ) ( * Nl5CT1 lam4n11 ) ( - 1 ) ) 0 ) ( = ( + ( * ( - 1 ) lam4n0 ) ( * ( - 1 ) lam4n5 ) ( * Nl5arg11 lam4n11 ) ) 0 ) ( = ( + ( * ( - 1 ) lam4n4 ) ( * ( - 1 ) lam4n6 ) ( * ( - 2 ) lam4n7 ) ( * Nl5arg21 lam4n11 ) ) 0 ) ( = ( + ( * ( - 3 ) lam4n7 ) ( * ( - 1 ) lam4n8 ) ) 0 ) ( = ( * ( - 1 ) lam4n1 ) 0 ) ( = ( * ( - 1 ) lam4n9 ) 0 ) ( = ( * 1 lam4n9 ) 0 ) ( = ( + ( * 1 lam4n4 ) ( * Nl5arg81 lam4n11 ) ) 0 ) ( = ( * Nl5arg91 lam4n11 ) 0 ) ( = ( + ( * ( - 1 ) lam4n2 ) ( * 1 lam4n10 ) ) 0 ) ( = ( + ( * ( - 1 ) lam4n3 ) ( * 1 lam4n5 ) ( * ( - 1 ) lam4n10 ) ) 0 ) ) ( and ( >= lam20n0 0 ) ( >= lam20n1 0 ) ( >= lam20n2 0 ) ( >= lam20n3 0 ) ( >= lam20n4 0 ) ( >= lam20n5 0 ) ( >= lam20n6 0 ) ( >= lam20n7 0 ) ( >= lam20n8 0 ) ( >= lam20n9 0 ) ( >= lam20n10 0 ) ( >= lam20n11 0 ) ( > ( + ( * 1 lam20n0 ) ( * 1 lam20n1 ) ( * 1 lam20n2 ) ( * 1 lam20n3 ) ( * ( - 1 ) lam20n4 ) ( * Nl5CT1 lam20n11 ) ( - 1 ( - ( + ( + ( + ( + ( + RFN1_CT ( * RFN1_arg1 0 ) ) ( * RFN1_arg5 ( - 1 ) ) ) ( * RFN1_arg6 0 ) ) ( * RFN1_arg7 ( - 4 ) ) ) ( * RFN1_arg9 0 ) ) RFN1_CT ) ) ) 0 ) ( = ( + ( * ( - 1 ) lam20n0 ) ( * ( - 1 ) lam20n5 ) ( * Nl5arg11 lam20n11 ) ( - ( - RFN1_arg1 ) ) ) 0 ) ( = ( + ( * ( - 1 ) lam20n4 ) ( * ( - 1 ) lam20n6 ) ( * ( - 2 ) lam20n7 ) ( * Nl5arg21 lam20n11 ) ( - ( - ( + ( + 0 RFN1_arg2 ) ( * RFN1_arg7 2 ) ) RFN1_arg2 ) ) ) 0 ) ( = ( - ( - ( + 0 RFN1_arg3 ) RFN1_arg3 ) ) 0 ) ( = ( + ( * ( - 3 ) lam20n7 ) ( * ( - 1 ) lam20n8 ) ( - ( - ( + ( + 0 RFN1_arg4 ) ( * RFN1_arg7 3 ) ) RFN1_arg4 ) ) ) 0 ) ( = ( + ( * ( - 1 ) lam20n1 ) ( - ( - ( + ( + 0 ( * RFN1_arg5 1 ) ) ( * RFN1_arg7 4 ) ) RFN1_arg5 ) ) ) 0 ) ( = ( + ( * ( - 1 ) lam20n9 ) ( - ( - RFN1_arg6 ) ) ) 0 ) ( = ( + ( * 1 lam20n9 ) ( - ( - RFN1_arg7 ) ) ) 0 ) ( = ( + ( * 1 lam20n4 ) ( * Nl5arg81 lam20n11 ) ( - ( - ( + 0 RFN1_arg8 ) RFN1_arg8 ) ) ) 0 ) ( = ( + ( * Nl5arg91 lam20n11 ) ( - ( - RFN1_arg9 ) ) ) 0 ) ( = ( + ( * ( - 1 ) lam20n2 ) ( * 1 lam20n10 ) ( - ( + 0 ( * RFN1_arg1 1 ) ) ) ) 0 ) ( = ( - ( + 0 ( * RFN1_arg9 1 ) ) ) 0 ) ( = ( + ( * ( - 1 ) lam20n3 ) ( * 1 lam20n5 ) ( * ( - 1 ) lam20n10 ) ) 0 ) ) ) ( or ( and ( >= lam6n0 0 ) ( >= lam6n1 0 ) ( >= lam6n2 0 ) ( >= lam6n3 0 ) ( >= lam6n4 0 ) ( >= lam6n5 0 ) ( >= lam6n6 0 ) ( >= lam6n7 0 ) ( >= lam6n8 0 ) ( >= lam6n9 0 ) ( >= lam6n10 0 ) ( >= lam6n11 0 ) ( > ( + ( * 1 lam6n0 ) ( * 1 lam6n1 ) ( * 1 lam6n2 ) ( * ( - 1 ) lam6n3 ) ( * Nl5CT1 lam6n11 ) ( - 1 ) ) 0 ) ( = ( + ( * ( - 1 ) lam6n0 ) ( * ( - 1 ) lam6n4 ) ( * Nl5arg11 lam6n11 ) ) 0 ) ( = ( + ( * ( - 1 ) lam6n3 ) ( * ( - 1 ) lam6n5 ) ( * ( - 100 ) lam6n6 ) ( * ( - 10 ) lam6n7 ) ( * Nl5arg21 lam6n11 ) ) 0 ) ( = ( + ( * ( - 10 ) lam6n6 ) ( * ( - 1 ) lam6n7 ) ( * ( - 1 ) lam6n8 ) ) 0 ) ( = ( + ( * ( - 1 ) lam6n6 ) ( * ( - 1 ) lam6n9 ) ) 0 ) ( = ( + ( * 1 lam6n1 ) ( * ( - 1 ) lam6n10 ) ) 0 ) ( = ( * ( - 1 ) lam6n1 ) 0 ) ( = ( + ( * 1 lam6n3 ) ( * Nl5arg81 lam6n11 ) ) 0 ) ( = ( * Nl5arg91 lam6n11 ) 0 ) ( = ( + ( * ( - 1 ) lam6n2 ) ( * 1 lam6n4 ) ) 0 ) ) ( and ( >= lam23n0 0 ) ( >= lam23n1 0 ) ( >= lam23n2 0 ) ( >= lam23n3 0 ) ( >= lam23n4 0 ) ( >= lam23n5 0 ) ( >= lam23n6 0 ) ( >= lam23n7 0 ) ( >= lam23n8 0 ) ( >= lam23n9 0 ) ( >= lam23n10 0 ) ( >= lam23n11 0 ) ( > ( + ( * 1 lam23n0 ) ( * 1 lam23n1 ) ( * 1 lam23n2 ) ( * ( - 1 ) lam23n3 ) ( * Nl5CT1 lam23n11 ) ( - 1 ( - ( + ( + ( + ( + ( + RFN1_CT ( * RFN1_arg1 0 ) ) ( * RFN1_arg6 0 ) ) ( * RFN1_arg7 0 ) ) ( * RFN1_arg8 0 ) ) ( * RFN1_arg9 0 ) ) RFN1_CT ) ) ) 0 ) ( = ( + ( * ( - 1 ) lam23n0 ) ( * ( - 1 ) lam23n4 ) ( * Nl5arg11 lam23n11 ) ( - ( - RFN1_arg1 ) ) ) 0 ) ( = ( + ( * ( - 1 ) lam23n3 ) ( * ( - 1 ) lam23n5 ) ( * ( - 100 ) lam23n6 ) ( * ( - 10 ) lam23n7 ) ( * Nl5arg21 lam23n11 ) ( - ( - ( + ( + 0 RFN1_arg2 ) ( * RFN1_arg8 1000 ) ) RFN1_arg2 ) ) ) 0 ) ( = ( - ( - ( + 0 RFN1_arg3 ) RFN1_arg3 ) ) 0 ) ( = ( + ( * ( - 10 ) lam23n6 ) ( * ( - 1 ) lam23n7 ) ( * ( - 1 ) lam23n8 ) ( - ( - ( + ( + 0 RFN1_arg4 ) ( * RFN1_arg8 100 ) ) RFN1_arg4 ) ) ) 0 ) ( = ( + ( * ( - 1 ) lam23n6 ) ( * ( - 1 ) lam23n9 ) ( - ( - ( + ( + 0 RFN1_arg5 ) ( * RFN1_arg8 10 ) ) RFN1_arg5 ) ) ) 0 ) ( = ( + ( * 1 lam23n1 ) ( * ( - 1 ) lam23n10 ) ( - ( - ( + ( + 0 ( * RFN1_arg7 1 ) ) ( * RFN1_arg8 1 ) ) RFN1_arg6 ) ) ) 0 ) ( = ( + ( * ( - 1 ) lam23n1 ) ( - ( - ( + 0 ( * RFN1_arg6 1 ) ) RFN1_arg7 ) ) ) 0 ) ( = ( + ( * 1 lam23n3 ) ( * Nl5arg81 lam23n11 ) ( - ( - ( + 0 ( * RFN1_arg9 1 ) ) RFN1_arg8 ) ) ) 0 ) ( = ( + ( * Nl5arg91 lam23n11 ) ( - ( - RFN1_arg9 ) ) ) 0 ) ( = ( + ( * ( - 1 ) lam23n2 ) ( * 1 lam23n4 ) ( - ( + 0 ( * RFN1_arg1 1 ) ) ) ) 0 ) ) ) ( or ( and ( >= lam8n0 0 ) ( >= lam8n1 0 ) ( >= lam8n2 0 ) ( >= lam8n3 0 ) ( >= lam8n4 0 ) ( >= lam8n5 0 ) ( > ( + ( * 1 lam8n0 ) ( * 1 lam8n1 ) ( * 1 lam8n2 ) ( * ( - 1 ) lam8n3 ) ( * Nl6CT1 lam8n5 ) ( - 1 ) ) 0 ) ( = ( + ( * ( - 1 ) lam8n0 ) ( * ( - 1 ) lam8n4 ) ( * Nl6arg11 lam8n5 ) ) 0 ) ( = ( + ( * ( - 1 ) lam8n3 ) ( * Nl6arg21 lam8n5 ) ) 0 ) ( = ( + ( * 1 lam8n1 ) ( * Nl6arg81 lam8n5 ) ) 0 ) ( = ( + ( * 1 lam8n3 ) ( * Nl6arg91 lam8n5 ) ) 0 ) ( = ( + ( * ( - 1 ) lam8n2 ) ( * 1 lam8n4 ) ) 0 ) ) ( and ( >= lam26n0 0 ) ( >= lam26n1 0 ) ( >= lam26n2 0 ) ( >= lam26n3 0 ) ( >= lam26n4 0 ) ( >= lam26n5 0 ) ( > ( + ( * 1 lam26n0 ) ( * 1 lam26n1 ) ( * 1 lam26n2 ) ( * ( - 1 ) lam26n3 ) ( * Nl6CT1 lam26n5 ) ( - 1 ( - ( + ( + ( + ( + ( + RFN1_CT ( * RFN1_arg1 0 ) ) ( * RFN1_arg6 1 ) ) ( * RFN1_arg7 0 ) ) ( * RFN1_arg8 0 ) ) ( * RFN1_arg9 0 ) ) RFN1_CT ) ) ) 0 ) ( = ( + ( * ( - 1 ) lam26n0 ) ( * ( - 1 ) lam26n4 ) ( * Nl6arg11 lam26n5 ) ( - ( - RFN1_arg1 ) ) ) 0 ) ( = ( + ( * ( - 1 ) lam26n3 ) ( * Nl6arg21 lam26n5 ) ( - ( - ( + 0 RFN1_arg2 ) RFN1_arg2 ) ) ) 0 ) ( = ( - ( - ( + 0 RFN1_arg3 ) RFN1_arg3 ) ) 0 ) ( = ( - ( - ( + 0 RFN1_arg4 ) RFN1_arg4 ) ) 0 ) ( = ( - ( - ( + 0 RFN1_arg5 ) RFN1_arg5 ) ) 0 ) ( = ( - ( - ( + 0 ( * RFN1_arg7 1 ) ) RFN1_arg6 ) ) 0 ) ( = ( - ( - ( + 0 ( * RFN1_arg6 1 ) ) RFN1_arg7 ) ) 0 ) ( = ( + ( * 1 lam26n1 ) ( * Nl6arg81 lam26n5 ) ( - ( - RFN1_arg8 ) ) ) 0 ) ( = ( + ( * 1 lam26n3 ) ( * Nl6arg91 lam26n5 ) ( - ( - ( + 0 ( * RFN1_arg8 1 ) ) RFN1_arg9 ) ) ) 0 ) ( = ( + ( * ( - 1 ) lam26n2 ) ( * 1 lam26n4 ) ( - ( + 0 ( * RFN1_arg1 1 ) ) ) ) 0 ) ( = ( - ( + 0 ( * RFN1_arg9 1 ) ) ) 0 ) ) ) ( or ( and ( >= lam10n0 0 ) ( >= lam10n1 0 ) ( >= lam10n2 0 ) ( >= lam10n3 0 ) ( >= lam10n4 0 ) ( >= lam10n5 0 ) ( > ( + ( * 1 lam10n0 ) ( * 1 lam10n1 ) ( * ( - 1 ) lam10n2 ) ( * Nl6CT1 lam10n5 ) ( - 1 ) ) 0 ) ( = ( + ( * ( - 1 ) lam10n0 ) ( * ( - 1 ) lam10n3 ) ( * Nl6arg11 lam10n5 ) ) 0 ) ( = ( + ( * ( - 1 ) lam10n2 ) ( * Nl6arg21 lam10n5 ) ) 0 ) ( = ( + ( * ( - 1 ) lam10n4 ) ( * Nl6arg81 lam10n5 ) ) 0 ) ( = ( + ( * 1 lam10n2 ) ( * Nl6arg91 lam10n5 ) ) 0 ) ( = ( + ( * ( - 1 ) lam10n1 ) ( * 1 lam10n3 ) ) 0 ) ) ( and ( >= lam29n0 0 ) ( >= lam29n1 0 ) ( >= lam29n2 0 ) ( >= lam29n3 0 ) ( >= lam29n4 0 ) ( >= lam29n5 0 ) ( > ( + ( * 1 lam29n0 ) ( * 1 lam29n1 ) ( * ( - 1 ) lam29n2 ) ( * Nl6CT1 lam29n5 ) ( - 1 ( - ( + ( + RFN1_CT ( * RFN1_arg1 0 ) ) ( * RFN1_arg8 ( - 1 ) ) ) RFN1_CT ) ) ) 0 ) ( = ( + ( * ( - 1 ) lam29n0 ) ( * ( - 1 ) lam29n3 ) ( * Nl6arg11 lam29n5 ) ( - ( - RFN1_arg1 ) ) ) 0 ) ( = ( + ( * ( - 1 ) lam29n2 ) ( * Nl6arg21 lam29n5 ) ( - ( - ( + 0 RFN1_arg2 ) RFN1_arg2 ) ) ) 0 ) ( = ( - ( - ( + 0 RFN1_arg3 ) RFN1_arg3 ) ) 0 ) ( = ( - ( - ( + 0 RFN1_arg4 ) RFN1_arg4 ) ) 0 ) ( = ( - ( - ( + 0 RFN1_arg5 ) RFN1_arg5 ) ) 0 ) ( = ( - ( - ( + 0 RFN1_arg6 ) RFN1_arg6 ) ) 0 ) ( = ( - ( - ( + 0 RFN1_arg7 ) RFN1_arg7 ) ) 0 ) ( = ( + ( * ( - 1 ) lam29n4 ) ( * Nl6arg81 lam29n5 ) ( - ( - ( + 0 ( * RFN1_arg8 1 ) ) RFN1_arg8 ) ) ) 0 ) ( = ( + ( * 1 lam29n2 ) ( * Nl6arg91 lam29n5 ) ( - ( - ( + 0 RFN1_arg9 ) RFN1_arg9 ) ) ) 0 ) ( = ( + ( * ( - 1 ) lam29n1 ) ( * 1 lam29n3 ) ( - ( + 0 ( * RFN1_arg1 1 ) ) ) ) 0 ) ) ) ))
(assert ( and ( and ( and ( >= lam27n0 0 ) ( >= lam27n1 0 ) ( >= lam27n2 0 ) ( >= lam27n3 0 ) ( >= lam27n4 0 ) ( >= lam27n5 0 ) ( > ( + ( * 1 lam27n0 ) ( * 1 lam27n1 ) ( * ( - 1 ) lam27n2 ) ( * Nl6CT1 lam27n5 ) ( - 1 ( - RFN1_CT ) ) ) 0 ) ( = ( + ( * ( - 1 ) lam27n0 ) ( * ( - 1 ) lam27n3 ) ( * Nl6arg11 lam27n5 ) ( - ( - RFN1_arg1 ) ) ) 0 ) ( = ( + ( * ( - 1 ) lam27n2 ) ( * Nl6arg21 lam27n5 ) ( - ( - RFN1_arg2 ) ) ) 0 ) ( = ( - ( - RFN1_arg3 ) ) 0 ) ( = ( - ( - RFN1_arg4 ) ) 0 ) ( = ( - ( - RFN1_arg5 ) ) 0 ) ( = ( - ( - RFN1_arg6 ) ) 0 ) ( = ( - ( - RFN1_arg7 ) ) 0 ) ( = ( + ( * ( - 1 ) lam27n4 ) ( * Nl6arg81 lam27n5 ) ( - ( - RFN1_arg8 ) ) ) 0 ) ( = ( + ( * 1 lam27n2 ) ( * Nl6arg91 lam27n5 ) ( - ( - RFN1_arg9 ) ) ) 0 ) ( = ( + ( * ( - 1 ) lam27n1 ) ( * 1 lam27n3 ) ) 0 ) ) ( and ( >= lam28n0 0 ) ( >= lam28n1 0 ) ( >= lam28n2 0 ) ( >= lam28n3 0 ) ( >= lam28n4 0 ) ( >= lam28n5 0 ) ( > ( + ( * 1 lam28n0 ) ( * 1 lam28n1 ) ( * ( - 1 ) lam28n2 ) ( * Nl6CT1 lam28n5 ) ( - 1 ( + ( - ( + ( + RFN1_CT ( * RFN1_arg1 0 ) ) ( * RFN1_arg8 ( - 1 ) ) ) RFN1_CT ) 1 ) ) ) 0 ) ( = ( + ( * ( - 1 ) lam28n0 ) ( * ( - 1 ) lam28n3 ) ( * Nl6arg11 lam28n5 ) ( - ( - RFN1_arg1 ) ) ) 0 ) ( = ( + ( * ( - 1 ) lam28n2 ) ( * Nl6arg21 lam28n5 ) ( - ( - ( + 0 RFN1_arg2 ) RFN1_arg2 ) ) ) 0 ) ( = ( - ( - ( + 0 RFN1_arg3 ) RFN1_arg3 ) ) 0 ) ( = ( - ( - ( + 0 RFN1_arg4 ) RFN1_arg4 ) ) 0 ) ( = ( - ( - ( + 0 RFN1_arg5 ) RFN1_arg5 ) ) 0 ) ( = ( - ( - ( + 0 RFN1_arg6 ) RFN1_arg6 ) ) 0 ) ( = ( - ( - ( + 0 RFN1_arg7 ) RFN1_arg7 ) ) 0 ) ( = ( + ( * ( - 1 ) lam28n4 ) ( * Nl6arg81 lam28n5 ) ( - ( - ( + 0 ( * RFN1_arg8 1 ) ) RFN1_arg8 ) ) ) 0 ) ( = ( + ( * 1 lam28n2 ) ( * Nl6arg91 lam28n5 ) ( - ( - ( + 0 RFN1_arg9 ) RFN1_arg9 ) ) ) 0 ) ( = ( + ( * ( - 1 ) lam28n1 ) ( * 1 lam28n3 ) ( - ( + 0 ( * RFN1_arg1 1 ) ) ) ) 0 ) ) ) ( and ( >= lam30n0 0 ) ( >= lam30n1 0 ) ( >= lam30n2 0 ) ( >= lam30n3 0 ) ( >= lam30n4 0 ) ( >= lam30n5 0 ) ( > ( + ( * 1 lam30n0 ) ( * 1 lam30n1 ) ( * ( - 1 ) lam30n2 ) ( * ( + ( - Nl6CT1 ) 1 ) lam30n5 ) ( - 1 ) ) 0 ) ( = ( + ( * ( - 1 ) lam30n0 ) ( * ( - 1 ) lam30n3 ) ( * ( - Nl6arg11 ) lam30n5 ) ) 0 ) ( = ( + ( * ( - 1 ) lam30n2 ) ( * ( - Nl6arg21 ) lam30n5 ) ) 0 ) ( = ( + ( * ( - 1 ) lam30n4 ) ( * ( - Nl6arg81 ) lam30n5 ) ) 0 ) ( = ( + ( * 1 lam30n2 ) ( * ( - Nl6arg91 ) lam30n5 ) ) 0 ) ( = ( + ( * ( - 1 ) lam30n1 ) ( * 1 lam30n3 ) ) 0 ) ) ))
(check-sat)
(exit)
